-110 348
170 -153
427 262
-106 -165
-297 -245
-47 87
-335 -233
-152 -355
94 -97
-425 -20
-260 248
-210 115
422 2
330 323
439 -378
236 73
-43 -237
-209 -359
85 149
74 207
-363 213
-224 210
-374 -108
408 84
246 308
204 293
-193 -349
-172 91
-411 -64
275 -215
297 101
425 -115
227 -287
-364 269
-347 -266
182 -212
-143 -321
3 183
147 -195
449 1
9 -373
50 -284
242 -54
-379 -390
-182 39
91 45
265 105
32 125
-135 -310
214 -34